param N := 10;
param M := 16;
param K := 5;
param x_max := 10;
param y_max := 16;
param a := 1.0;
param b := 1.0;
param T := 130;
param i_start := 1 1 2 3 3 5 4 7 5 9;
param j_start := 1 1 2 1 3 1 4 1 5 1;
param i_end := 1 9 2 7 3 5 4 3 5 1;
param j_end := 1 16 2 16 3 16 4 16 5 16;